B=4;
D=1;
P=7;
S=7;
demands = [2 1 3 1 3 4 1 ];
capacities = [7 2 9 8 7 6 2 ];
dist_start = [6 5 6 8 1 4 1 ];
dist = [3 3 7 4 9 10 8 6 10 1 7 10 6 1 2 6 10 5 5 4 10 10 1 5 4 8 4 7 1 6 7 5 8 4 10 6 5 10 1 4 10 10 6 5 2 7 10 3 2 ];
